50
4793

961 533
430 775
198 940
167 306
604 620
230 394
321 838
258 522
263 864
169 388
574 958
955 458
1000 56
113 951
916 653
871 573
437 918
591 459
820 959
405 981
532 727
538 421
308 620
452 106
750 371
986 793
550 560
960 698
700 99
982 483
209 696
605 252
503 274
624 616
456 418
169 394
798 687
270 748
685 308
41 701
413 852
358 369
116 356
668 878
706 802
197 995
695 764
874 334
886 810
50 212
